39955.58,69.19,83.91
46987.29,58.84,71.35
52565.28,52.59,63.78
55159.67,50.12,60.78
47894.61,57.72,70.0
48637.31,56.84,68.93
50633.07,54.6,66.21
50710.92,54.52,66.11
46338.15,59.66,72.35
43880.43,63.0,76.4
40356.42,68.5,83.07
57022.34,48.48,58.8
44626.21,61.95,75.13
46441.51,59.53,72.19
37141.46,74.43,90.26
45670.27,60.53,73.41
45612.29,60.61,73.5
56216.31,49.18,59.64
52101.17,53.06,64.35
48383.61,57.14,69.29
